Rodando pra 1h

Optimize a model with 160039 rows, 239430 columns and 2788404 nonzeros
Coefficient statistics:
  Matrix range    [1e+00, 1e+04]
  Objective range [3e-01, 3e-01]
  Bounds range    [1e+00, 1e+04]
  RHS range       [1e+00, 1e+04]
Presolve removed 2 rows and 2 columns (presolve time = 5s) ...
Presolve removed 2 rows and 2 columns (presolve time = 10s) ...
Presolve removed 2 rows and 2 columns (presolve time = 15s) ...
Presolve removed 2 rows and 2 columns (presolve time = 22s) ...
Presolve removed 2 rows and 2 columns
Presolve time: 22.41s
Presolved: 160037 rows, 239428 columns, 2788395 nonzeros
Variable types: 159600 continuous, 79828 integer (79825 binary)
Optimize a model with 160037 rows, 239428 columns and 2788395 nonzeros
Coefficient statistics:
  Matrix range    [1e+00, 1e+04]
  Objective range [3e-01, 3e-01]
  Bounds range    [1e+00, 1e+04]
  RHS range       [1e+00, 2e+04]
Presolved: 160037 rows, 239428 columns, 2788395 nonzeros


Root simplex log...

Iteration    Objective       Primal Inf.    Dual Inf.      Time
       0    0.0000000e+00   1.204779e+03   0.000000e+00     31s
     820    0.0000000e+00   0.000000e+00   0.000000e+00     31s

Root relaxation: objective 0.000000e+00, 820 iterations, 2.60 seconds

    Nodes    |    Current Node    |     Objective Bounds      |     Work
 Expl Unexpl |  Obj  Depth IntInf | Incumbent    BestBd   Gap | It/Node Time

     0     0    0.00000    0  412          -    0.00000      -     -  888s
     0     0          -    0               -    0.00000      -     - 3600s

Cutting planes:
  Flow cover: 164

Explored 0 nodes (384125 simplex iterations) in 3600.01 seconds
Thread count was 1 (of 4 available processors)

Time limit reached
Best objective -, best bound 0.000000000000e+00, gap -
Tempo: 3594.22 segundos

Error code = 10004
Var::get
